peakDumbCharging = 18500; 
Machine = anon_enum(16); 
machineSpeed = [3700,3700,3700,3700,3700,3700,3700,3700,3700,3700,3700,3700,3700,3700,3700,3700]; 
machineLoad = [3700,3700,3700,3700,3700,3700,3700,3700,3700,3700,3700,3700,3700,3700,3700,3700]; 
Car = anon_enum(22); 
demandCar = [3360,18360,5320,12480,5240,10040,5480,11360,1920,16080,13560,13440,1400,1880,35680,8120,4360,3600,2800,17920,32360,14160]; 
arrivalCar = [71,69,69,67,66,65,64,63,62,61,61,60,58,56,51,50,49,46,45,35,31,31]; 
departureCar = [74,77,72,71,69,70,70,70,65,69,67,67,59,58,66,56,51,49,48,41,44,65]; 
